%nprocshared=32
%mem=100gb
%chk=nbutanolF.chk
# opt b3lyp/6-311++g(d,p)

nbutanol_opt

0 1
C -0.500000 1.414200 0.000000
C 0.000000 0.000000 0.000000
C 1.500000 0.000000 0.000000
C 2.000000 -1.414200 0.000000
O 3.380000 -1.414200 0.000000
H -1.590000 1.414200 0.000000
H -0.136700 1.928000 0.890000
H -0.136700 1.928000 -0.890000
H -0.363300 -0.513800 -0.890000
H -0.363300 -0.513800 0.890000
H 1.863300 0.513800 0.890000
H 1.863300 0.513800 -0.890000
H 1.636700 -1.928000 -0.890000
H 1.636700 -1.928000 0.890000
H 3.802600 -2.320500 0.000000

