%nprocshared=32
%mem=100gb
%chk=secbutanolF.chk
# opt b3lyp/6-311++g(d,p)

secbutanol_opt

0 1
C -0.500000 -0.707100 -1.224700
C 0.000000 0.000000 0.000000
C -0.500000 1.414200 -0.000000
C 1.500000 0.000000 0.000000
O 1.960000 0.650500 1.126800
H -0.136700 -0.193300 -2.114700
H -0.136700 -1.734800 -1.224700
H -1.590000 -0.707100 -1.224700
H -0.363300 -0.513800 0.890000
H -0.136700 1.928000 -0.890000
H -1.590000 1.414200 -0.000000
H -0.136700 1.928000 0.890000
H 1.863300 0.513800 -0.890000
H 1.863300 -1.027700 -0.000000
H 2.955300 0.698700 1.210200

