%nprocshared=32
%mem=100gb
%chk=methanolF.chk
# opt b3lyp/6-311++g(d,p)

methanol_opt

0 1
C 0.000000 0.000000 0.000000
O 1.380000 0.000000 0.000000
H -0.363300 1.027700 0.000000
H -0.363300 -0.513800 -0.890000
H -0.363300 -0.513800 0.890000
H 1.802600 -0.906300 -0.000000

