%nprocshared=32
%mem=100gb
%chk=ethanolF.chk
# opt b3lyp/6-311++g(d,p)

ethanol_opt

0 1
C 0.000000 0.000000 0.000000
C 1.500000 0.000000 0.000000
O 1.960000 -1.301100 -0.000000
H -0.363300 1.027700 0.000000
H -0.363300 -0.513800 -0.890000
H -0.363300 -0.513800 0.890000
H 1.863300 0.513800 0.890000
H 1.863300 0.513800 -0.890000
H 2.955300 -1.397400 -0.000000

